69
0 20 3 24 62 65 8 45 55 64 
22 5 57 49 33 40 48 14 44 54 
13 52 56 25 51 68 38 17 12 53 
37 35 16 7 27 15 23 4 2 63 
31 67 9 39 47 11 21 34 19 36 
30 6 1 10 32 59 42 46 61 50 
41 60 58 43 28 26 66 18 29 
